11,6	0,0	15,2	11,6	0,0	0,0	0,0	0,0	0,0	17,1
6,9	6,3	0,0	7,4	10,2	0,0	0,0	8,0	0,0	0,0
0,0	0,0	11,8	0,0	12,7	10,8	0,0	0,0	6,7	0,0
14,3	0,0	12,4	0,0	0,0	0,0	5,4	0,0	0,0	0,0
0,0	8,8	0,0	6,7	9,2	0,0	0,0	9,0	0,0	0,0
0,0	18,8	19,6	0,0	12,3	13,2	0,0	0,0	7,6	0,0
0,0	17,8	0,0	7,7	0,0	0,0	12,6	0,0	0,0	14,6
5,4	0,0	14,5	0,0	0,0	0,0	0,0	0,0	0,0	19,4
0,0	7,4	0,0	8,8	6,6	0,0	0,0	11,4	0,0	0,0
0,0	0,0	8,0	0,0	0,0	13,2	8,6	0,0	0,0	14,1
									
4,5	3,6	4,5	3,6	4,2	4,6	3,5	3,7	4,8	3,0
